c 
c MolecularSimulation 0.9.3
c Simulation written: Jan 17 2012 -- 13:33:12
c Test: Ogihara-Ray
c Input: ./data/jnh/jnh217.cnf
c 
s UNSATISFIABLE
v 0
c algorithmType:  Lipton
c algorithmTime:  1
c solutionMemory: 0
c mixCount:       392
c extractCount:   3760
c appendCount:    196
c splitCount:     98
c spliceCount:    0
c purifyCount:    850
c numVar:         100
c numClause:      800
c 
